c Sudoku solution
p cnf 729 0
119 0
135 0
148 0
187 0
196 0
317 0
354 0
369 0
383 0
499 0
531 0
568 0
572 0
643 0
657 0
727 0
437 0
597 0
473 0
814 0
823 0
513 0
233 0
634 0
629 0
865 0
888 0
938 0
758 0
959 0
549 0
584 0
153 0
995 0
793 0
963 0
715 0
267 0
294 0
171 0
162 0
124 0
612 0
442 0
464 0
852 0
891 0
698 0
392 0
222 0
336 0
732 0
839 0
982 0
876 0
789 0
977 0
774 0
741 0
766 0
944 0
847 0
345 0
251 0
246 0
218 0
321 0
378 0
911 0
926 0
416 0
525 0
428 0
556 0
455 0
661 0
481 0
675 0
686 0
279 0
285 0
